8 5 70
0 26 15 20 7 25 16 24 29
26 0 15 23 26 33 40 38 54 
15 15 0 24 13 20 27 35 43 
20 23 24 0 26 42 34 15 39
7 26 13 26 0 18 14 31 32
25 33 20 42 18 0 25 49 45 
16 40 27 34 14 25 0 32 20 
24 38 35 15 31 49 32 0 30 
29 54 43 39 32 45 20 30 0
18 26 11 30 21 16 29 37
